NAME: random_points
TYPE: TSP
DIMENSION: 12
EDGE_WEIGHT_TYPE: EUC_2D
NODE_COORD_SECTION
1 629 61
2 522 518
3 202 219
4 52 70
5 819 164
6 445 91
7 320 190
8 540 664
9 607 156
10 433 85
11 663 113
12 165 627
EOF
